c1_10_9

VEHICLE
NUMBER   CAPACITY
250     200

CUSTOMER
CUST NO. XCOORD.  YCOORD.  DEMAND  READY TIME DUE DATE  SERVICE TIME

0   250    250     0     0    1824     0
12 270 49 30 767 1127 90
697 290 46 20 684 1044 90
197 233 47 20 206 566 90
632 267 44 20 491 851 90
369 287 43 10 402 762 90
589 235 50 30 675 1035 90
198 237 43 20 487 847 90
212 278 46 20 205 565 90
859 279 42 40 210 570 90
648 230 49 20 201 561 90
63 275 45 20 300 660 90
366 269 46 20 584 944 90
421 285 44 10 310 670 90
949 232 47 10 203 563 90
929 268 52 10 861 1221 90
261 288 44 20 494 854 90
38 273 55 20 196 556 90
64 238 46 40 580 940 90
633 277 50 10 201 561 90
767 231 43 10 300 660 90
192 269 48 20 676 1036 90
814 288 53 40 781 1141 90
838 292 41 10 589 949 90
262 274 48 10 206 566 90
618 275 42 30 393 753 90
214 232 42 10 392 752 90
324 283 47 10 216 576 90
